data/benchmarks/bayes/90-12-3-q.cnf
p cnf 672 603
c weights 0.603803 0.396197 1 1 1 1 1 1 1 1 1 1 1 1 1 1 1 1 1 1 1 1 1 1 1 1 1 1 1 1 1 1 1 1 1 1 1 1 1 1 1 1 1 1 1 1 1 1 1 1 1 1 1 1 1 1 1 1 1 1 1 1 1 1 1 1 1 1 1 1 1 1 1 1 1 1 1 1 1 1 1 1 1 1 1 1 1 1 1 1 1 1 1 1 1 1 1 1 1 1 1 1 1 1 1 1 1 1 1 1 1 1 1 1 1 1 1 1 1 1 1 1 1 1 1 1 1 1 1 1 1 1 1 1 1 1 1 1 1 1 1 1 1 1 1 1 1 1 1 1 1 1 1 1 1 1 1 1 1 1 1 1 1 1 1 1 1 1 1 1 1 1 1 1 1 1 1 1 1 1 1 1 1 1 1 1 1 1 1 1 1 1 1 1 1 1 1 1 1 1 1 1 1 1 1 1 1 1 1 1 1 1 1 1 1 1 1 1 1 1 1 1 1 1 1 1 1 1 1 1 1 1 1 1 1 1 1 1 1 1 1 1 1 1 1 1 1 1 1 1 1 1 1 1 1 1 1 1 1 1 1 1 1 1 1 1 1 1 1 1 1 1 1 1 1 1 1 1 1 1 1 1 1 1 1 1 1 1 0.5 0.5 0.5 0.5 0.5 0.5 0.5 0.5 0.5 0.5 0.5 0.5 0.5 0.5 0.5 0.5 0.5 0.5 0.5 0.5 0.5 0.5 0.5 0.5 0.5 0.5 0.5 0.5 0.5 0.5 0.5 0.5 0.5 0.5 0.5 0.5 0.5 0.5 0.5 0.5 0.5 0.5 0.5 0.5 0.575308 0.42469199999999996 0.180072 0.819928 0.5 0.5 0.5 0.5 0.5 0.5 0.5 0.5 0.5 0.5 0.5 0.5 0.5 0.5 0.5 0.5 0.5 0.5 0.5 0.5 0.5 0.5 0.5 0.5 0.5 0.5 0.5 0.5 0.5 0.5 0.5 0.5 0.5 0.5 0.5 0.5 0.5 0.5 0.5 0.5 0.5 0.5 0.5 0.5 0.5 0.5 0.5 0.5 0.0519191 0.9480809 0.85358 0.14642 0.0906904 0.9093096 0.997799 0.0022010000000000085 0.5 0.5 0.5 0.5 0.5 0.5 0.5 0.5 0.5 0.5 0.5 0.5 0.5 0.5 0.5 0.5 0.5 0.5 0.5 0.5 0.5 0.5 0.5 0.5 0.5 0.5 0.5 0.5 0.5 0.5 0.5 0.5 0.5 0.5 0.5 0.5 0.5 0.5 0.5 0.5 0.5 0.5 0.5 0.5 0.5 0.5 0.5 0.5 0.5 0.5 0.5 0.5 0.5 0.5 0.5 0.5 0.5 0.5 0.5 0.5 0.5 0.5 0.5 0.5 0.5 0.5 0.5 0.5 0.5 0.5 0.5 0.5 0.5 0.5 0.5 0.5 0.554861 0.44513899999999995 0.555055 0.44494500000000003 0.0699585 0.9300415 0.324611 0.675389 0.5 0.5 0.5 0.5 0.5 0.5 0.5 0.5 0.5 0.5 0.5 0.5 0.5 0.5 0.5 0.5 0.5 0.5 0.5 0.5 0.5 0.5 0.5 0.5 0.4727 0.5273 0.729071 0.270929 0.0791214 0.9208786 0.964803 0.035197000000000034 0.5 0.5 0.5 0.5 0.5 0.5 0.5 0.5 0.5 0.5 0.5 0.5 0.5 0.5 0.5 0.5 0.5 0.5 0.5 0.5 0.5 0.5 0.5 0.5 0.5 0.5 0.5 0.5 0.5 0.5 0.5 0.5 0.5 0.5 0.5 0.5 0.5 0.5 0.5 0.5 0.5 0.5 0.5 0.5 0.5 0.5 0.5 0.5 0.5 0.5 0.5 0.5 0.5 0.5 0.5 0.5 0.5 0.5 0.5 0.5 0.5 0.5 0.5 0.5 0.5 0.5 0.5 0.5 0.5 0.5 0.5 0.5 0.5 0.5 0.5 0.5 0.5 0.5 0.5 0.5 0.5 0.5 0.5 0.5 0.5 0.5 0.5 0.5 0.5 0.5 0.5 0.5 0.5 0.5 0.5 0.5 0.5 0.5 0.5 0.5 0.399047 0.6009530000000001 0.683386 0.31661399999999995 0.5 0.5 0.5 0.5 0.5 0.5 0.5 0.5 0.5 0.5 0.5 0.5 0.5 0.5 0.5 0.5 0.5 0.5 0.5 0.5 0.5 0.5 0.5 0.5 0.5 0.5 0.5 0.5 0.5 0.5 0.5 0.5 0.5 0.5 0.5 0.5 0.5 0.5 0.5 0.5 0.5 0.5 0.5 0.5 0.5 0.5 0.5 0.5 0.5 0.5 0.5 0.5 0.5 0.5 0.5 0.5 0.218998 0.781002 0.585021 0.414979 0.326657 0.673343 0.91397 0.08603000000000005 0.712257 0.28774299999999997 0.126417 0.873583 0.817248 0.18275200000000003 0.514618 0.485382 0.5 0.5 0.5 0.5 0.5 0.5 0.5 0.5 0.5 0.5 0.5 0.5 0.5 0.5 0.5 0.5 0.5 0.5 0.5 0.5 0.5 0.5 0.5 0.5 0.5 0.5 0.5 0.5 0.5 0.5 0.5 0.5 0.5 0.5 0.5 0.5 0.5 0.5 0.5 0.5 0.5 0.5 0.5 0.5 0.5 0.5 0.5 0.5 0.5 0.5 0.5 0.5 0.5 0.5 0.5 0.5 0.5 0.5 0.5 0.5 0.5 0.5 0.5 0.5 0.5 0.5 0.5 0.5 0.5 0.5 0.5 0.5 0.5 0.5 0.5 0.5 0.5 0.5 0.5 0.5 0.5 0.5 0.5 0.5 0.5 0.5 0.5 0.5 0.5 0.5 0.5 0.5 0.49276 0.50724 0.214629 0.785371 0.904709 0.09529100000000001 0.587871 0.41212899999999997 0.5 0.5 0.5 0.5 0.5 0.5 0.5 0.5 0.0772092 0.9227908 0.800775 0.19922499999999999 0.633643 0.36635700000000004 0.803303 0.196697 0.0858341 0.9141659 0.482359 0.517641 0.5 0.5 0.5 0.5 0.5 0.5 0.5 0.5 0.5 0.5 0.5 0.5 0.5 0.5 0.5 0.5 0.5 0.5 0.5 0.5 0.5 0.5 0.5 0.5 0.5 0.5 0.5 0.5 0.5 0.5 0.5 0.5 0.5 0.5 0.5 0.5 0.5 0.5 0.5 0.5 0.5 0.5 0.5 0.5 0.5 0.5 0.5 0.5 0.5 0.5 0.5 0.5 0.5 0.5 0.5 0.5 0.5 0.5 0.5 0.5 0.5 0.5 0.5 0.5 0.5 0.5 0.5 0.5 0.5 0.5 0.5 0.5 0.5 0.5 0.5 0.5 0.5 0.5 0.5 0.5 0.5 0.5 0.5 0.5 0.5 0.5 0.5 0.5 0.5 0.5 0.5 0.5 0.5 0.5 0.5 0.5 0.5 0.5 0.5 0.5 0.5 0.5 0.5 0.5 0.5 0.5 0.5 0.5 0.5 0.5 0.5 0.5 0.5 0.5 0.5 0.5 0.5 0.5 0.5 0.5 0.5 0.5 0.5 0.5 0.891166 0.10883399999999999 0.200319 0.799681 0.831776 0.16822400000000004 0.390276 0.6097239999999999 0.5 0.5 0.5 0.5 0.5 0.5 0.5 0.5 0.5 0.5 0.5 0.5 0.5 0.5 0.5 0.5 0.5 0.5 0.5 0.5 0.5 0.5 0.5 0.5 0.5 0.5 0.5 0.5 0.5 0.5 0.5 0.5 0.5 0.5 0.5 0.5 0.5 0.5 0.5 0.5 0.5 0.5 0.5 0.5 0.5 0.5 0.5 0.5 0.5 0.5 0.5 0.5 0.5 0.5 0.5 0.5 0.5 0.5 0.5 0.5 0.5 0.5 0.5 0.5 0.5 0.5 0.5 0.5 0.5 0.5 0.5 0.5 0.5 0.5 0.5 0.5 0.5 0.5 0.5 0.5 0.5 0.5 0.5 0.5 0.5 0.5 0.5 0.5 0.5 0.5 0.5 0.5 0.151523 0.848477 0.722098 0.277902 0.431855 0.568145 0.501699 0.498301 0.970299 0.029700999999999977 0.566767 0.433233 0.0439781 0.9560219 0.725244 0.274756 0.5 0.5 0.5 0.5 0.5 0.5 0.5 0.5 0.737501 0.26249900000000004 0.842826 0.15717400000000004 0.929562 0.070438 0.792801 0.20719900000000002 0.5 0.5 0.5 0.5 0.5 0.5 0.5 0.5 0.5 0.5 0.5 0.5 0.685025 0.314975 0.527611 0.47238899999999995 0.86028 0.13971999999999996 0.677329 0.32267100000000004 0.5 0.5 0.5 0.5 0.5 0.5 0.5 0.5 0.5 0.5 0.5 0.5 0.5 0.5 0.5 0.5 0.5 0.5 0.5 0.5 0.5 0.5 0.5 0.5 0.5 0.5 0.5 0.5 0.5 0.5 0.5 0.5 0.187502 0.8124979999999999 0.24193 0.75807 0.457327 0.542673 0.582068 0.41793199999999997 0.422858 0.577142 0.267092 0.732908 0.435628 0.564372 0.283138 0.716862 0.114762 0.885238 0.865517 0.13448300000000002 0.0536058 0.9463942 0.295595 0.704405 0.5 0.5 0.5 0.5 0.5 0.5 0.5 0.5 0.5 0.5 0.5 0.5 0.5 0.5 0.5 0.5 0.5 0.5 0.5 0.5 0.5 0.5 0.5 0.5 0.5 0.5 0.5 0.5 0.5 0.5 0.5 0.5 0.5 0.5 0.5 0.5 0.5 0.5 0.5 0.5 0.5 0.5 0.5 0.5 0.5 0.5 0.5 0.5 0.5 0.5 0.5 0.5 0.5 0.5 0.5 0.5 0.5 0.5 0.5 0.5 0.5 0.5 0.5 0.5 0.5 0.5 0.5 0.5 0.5 0.5 0.5 0.5 0.5 0.5 0.5 0.5 0.5 0.5 0.5 0.5 0.5 0.5 0.5 0.5 0.5 0.5 0.5 0.5 0.5 0.5 0.5 0.5 0.5 0.5 0.5 0.5 0.5 0.5 0.5 0.5 0.5 0.5 0.5 0.5 0.5 0.5 0.5 0.5 0.5 0.5 0.5 0.5 0.5 0.5 0.5 0.5 0.5 0.5 0.5 0.5 0.5 0.5 0.5 0.5 0.5 0.5 0.5 0.5 0.89559 0.10441 0.661516 0.338484 0.456095 0.5439050000000001 0.918211 0.081789 0.5 0.5 0.5 0.5 0.5 0.5 0.5 0.5 0.5 0.5 0.5 0.5 0.5 0.5 0.5 0.5 0.5 0.5 0.5 0.5 0.5 0.5 0.5 0.5 0.00922057 0.99077943 0.207242 0.792758 0.28464 0.71536 0.374285 0.625715 0.5 0.5 0.5 0.5 0.5 0.5 0.5 0.5 0.5 0.5 0.5 0.5 0.5 0.5 0.5 0.5 0.5 0.5 0.5 0.5 0.5 0.5 0.5 0.5 0.5 0.5 0.5 0.5 0.5 0.5 0.5 0.5 0.5 0.5 0.5 0.5 0.5 0.5 0.5 0.5
-1 2 0
1 -2 0
-2 -3 0
2 3 0
-3 4 0
3 -4 0
-4 -5 0
4 5 0
-5 -6 0
5 6 0
-6 7 0
6 -7 0
-7 8 0
7 -8 0
-8 9 0
8 -9 0
-9 -10 0
9 10 0
-10 11 0
10 -11 0
-11 12 0
11 -12 0
-1 -167 13 0
-1 167 -13 0
1 -168 13 0
1 168 -13 0
-13 -2 14 0
-13 2 14 0
13 -2 -14 0
13 2 -14 0
-14 -3 -15 0
-14 3 15 0
14 -3 15 0
14 3 -15 0
-15 -4 -16 0
-15 4 16 0
15 -4 16 0
15 4 -16 0
-16 -5 -17 0
-16 5 17 0
16 -5 17 0
16 5 17 0
-17 -6 -18 0
-17 6 -18 0
17 -6 -18 0
17 6 18 0
-18 -7 19 0
-18 7 19 0
18 -7 -19 0
18 7 -19 0
-19 -8 -193 20 0
-19 -8 193 -20 0
-19 8 -194 20 0
-19 8 194 -20 0
19 -8 -195 20 0
19 -8 195 -20 0
19 8 -196 20 0
19 8 196 -20 0
-20 -9 21 0
-20 9 -21 0
20 -9 -21 0
20 9 -21 0
-21 -10 22 0
-21 10 22 0
21 -10 22 0
21 10 -22 0
-22 -11 23 0
-22 11 -23 0
22 -11 -23 0
22 11 -23 0
-23 -12 -24 0
-23 12 -24 0
23 -12 24 0
23 12 24 0
-13 25 0
13 -25 0
-25 -14 26 0
-25 14 26 0
25 -14 -26 0
25 14 26 0
-26 -15 -27 0
-26 15 27 0
26 -15 -27 0
26 15 27 0
-27 -16 -28 0
-27 16 -28 0
27 -16 28 0
27 16 28 0
-28 -17 -29 0
-28 17 -29 0
28 -17 -29 0
28 17 29 0
-29 -18 -30 0
-29 18 30 0
29 -18 30 0
29 18 -30 0
-30 -19 -235 31 0
-30 -19 235 -31 0
-30 19 -236 31 0
-30 19 236 -31 0
30 -19 -237 31 0
30 -19 237 -31 0
30 19 -238 31 0
30 19 238 -31 0
-31 -20 -32 0
-31 20 32 0
31 -20 32 0
31 20 32 0
-32 -21 33 0
-32 21 -33 0
32 -21 33 0
32 21 33 0
-33 -22 34 0
-33 22 34 0
33 -22 -34 0
33 22 -34 0
-34 -23 -251 35 0
-34 -23 251 -35 0
-34 23 -252 35 0
-34 23 252 -35 0
34 -23 -253 35 0
34 -23 253 -35 0
34 23 -254 35 0
34 23 254 -35 0
-35 -24 36 0
-35 24 -36 0
35 -24 -36 0
35 24 36 0
-25 -37 0
25 37 0
-37 -26 38 0
-37 26 -38 0
37 -26 38 0
37 26 -38 0
-38 -27 -39 0
-38 27 39 0
38 -27 39 0
38 27 39 0
-39 -28 40 0
-39 28 -40 0
39 -28 -40 0
39 28 -40 0
-40 -29 41 0
-40 29 41 0
40 -29 -41 0
40 29 41 0
-41 -30 42 0
-41 30 -42 0
41 -30 -42 0
41 30 -42 0
-42 -31 -43 0
-42 31 -43 0
42 -31 43 0
42 31 -43 0
-43 -32 44 0
-43 32 -44 0
43 -32 44 0
43 32 44 0
-44 -33 -45 0
-44 33 45 0
44 -33 -45 0
44 33 45 0
-45 -34 -46 0
-45 34 -46 0
45 -34 46 0
45 34 -46 0
-46 -35 47 0
-46 35 -47 0
46 -35 -47 0
46 35 47 0
-47 -36 -48 0
-47 36 -48 0
47 -36 -48 0
47 36 48 0
-37 -305 49 0
-37 305 -49 0
37 -306 49 0
37 306 -49 0
-49 -38 -50 0
-49 38 50 0
49 -38 -50 0
49 38 -50 0
-50 -39 51 0
-50 39 -51 0
50 -39 51 0
50 39 51 0
-51 -40 52 0
-51 40 52 0
51 -40 52 0
51 40 -52 0
-52 -41 -53 0
-52 41 53 0
52 -41 53 0
52 41 -53 0
-53 -42 -54 0
-53 42 54 0
53 -42 54 0
53 42 54 0
-54 -43 55 0
-54 43 -55 0
54 -43 -55 0
54 43 55 0
-55 -44 -56 0
-55 44 56 0
55 -44 56 0
55 44 56 0
-56 -45 -335 57 0
-56 -45 335 -57 0
-56 45 -336 57 0
-56 45 336 -57 0
56 -45 -337 57 0
56 -45 337 -57 0
56 45 -338 57 0
56 45 338 -57 0
-57 -46 -339 58 0
-57 -46 339 -58 0
-57 46 -340 58 0
-57 46 340 -58 0
57 -46 -341 58 0
57 -46 341 -58 0
57 46 -342 58 0
57 46 342 -58 0
-58 -47 59 0
-58 47 59 0
58 -47 -59 0
58 47 -59 0
-59 -48 60 0
-59 48 60 0
59 -48 -60 0
59 48 -60 0
-49 -61 0
49 61 0
-61 -50 62 0
-61 50 62 0
61 -50 -62 0
61 50 -62 0
-62 -51 63 0
-62 51 63 0
62 -51 63 0
62 51 -63 0
-63 -52 64 0
-63 52 -64 0
63 -52 -64 0
63 52 64 0
-64 -53 -65 0
-64 53 -65 0
64 -53 65 0
64 53 -65 0
-65 -54 66 0
-65 54 -66 0
65 -54 66 0
65 54 -66 0
-66 -55 -67 0
-66 55 -67 0
66 -55 -67 0
66 55 67 0
-67 -56 68 0
-67 56 -68 0
67 -56 -68 0
67 56 -68 0
-68 -57 69 0
-68 57 69 0
68 -57 -69 0
68 57 -69 0
-69 -58 -70 0
-69 58 -70 0
69 -58 -70 0
69 58 70 0
-70 -59 -389 71 0
-70 -59 389 -71 0
-70 59 -390 71 0
-70 59 390 -71 0
70 -59 -391 71 0
70 -59 391 -71 0
70 59 -392 71 0
70 59 392 -71 0
-71 -60 -72 0
-71 60 -72 0
71 -60 72 0
71 60 -72 0
-61 -397 73 0
-61 397 -73 0
61 -398 73 0
61 398 -73 0
-73 -62 -399 74 0
-73 -62 399 -74 0
-73 62 -400 74 0
-73 62 400 -74 0
73 -62 -401 74 0
73 -62 401 -74 0
73 62 -402 74 0
73 62 402 -74 0
-74 -63 -75 0
-74 63 -75 0
74 -63 -75 0
74 63 75 0
-75 -64 -76 0
-75 64 76 0
75 -64 76 0
75 64 -76 0
-76 -65 -77 0
-76 65 -77 0
76 -65 77 0
76 65 77 0
-77 -66 78 0
-77 66 -78 0
77 -66 -78 0
77 66 78 0
-78 -67 79 0
-78 67 -79 0
78 -67 -79 0
78 67 -79 0
-79 -68 -80 0
-79 68 80 0
79 -68 80 0
79 68 -80 0
-80 -69 81 0
-80 69 -81 0
80 -69 81 0
80 69 81 0
-81 -70 -82 0
-81 70 82 0
81 -70 -82 0
81 70 82 0
-82 -71 83 0
-82 71 83 0
82 -71 -83 0
82 71 -83 0
-83 -72 -84 0
-83 72 84 0
83 -72 84 0
83 72 84 0
-73 -85 0
73 85 0
-85 -74 -86 0
-85 74 -86 0
85 -74 -86 0
85 74 86 0
-86 -75 87 0
-86 75 -87 0
86 -75 -87 0
86 75 -87 0
-87 -76 -88 0
-87 76 -88 0
87 -76 88 0
87 76 88 0
-88 -77 -89 0
-88 77 89 0
88 -77 -89 0
88 77 -89 0
-89 -78 90 0
-89 78 90 0
89 -78 -90 0
89 78 -90 0
-90 -79 -465 91 0
-90 -79 465 -91 0
-90 79 -466 91 0
-90 79 466 -91 0
90 -79 -467 91 0
90 -79 467 -91 0
90 79 -468 91 0
90 79 468 -91 0
-91 -80 -92 0
-91 80 -92 0
91 -80 92 0
91 80 -92 0
-92 -81 93 0
-92 81 -93 0
92 -81 93 0
92 81 -93 0
-93 -82 94 0
-93 82 -94 0
93 -82 -94 0
93 82 -94 0
-94 -83 95 0
-94 83 -95 0
94 -83 95 0
94 83 95 0
-95 -84 -96 0
-95 84 -96 0
95 -84 -96 0
95 84 96 0
-85 -97 0
85 97 0
-97 -86 -98 0
-97 86 -98 0
97 -86 98 0
97 86 -98 0
-98 -87 -99 0
-98 87 99 0
98 -87 -99 0
98 87 -99 0
-99 -88 100 0
-99 88 -100 0
99 -88 100 0
99 88 -100 0
-100 -89 -101 0
-100 89 -101 0
100 -89 -101 0
100 89 101 0
-101 -90 102 0
-101 90 -102 0
101 -90 -102 0
101 90 -102 0
-102 -91 -103 0
-102 91 103 0
102 -91 103 0
102 91 -103 0
-103 -92 -515 104 0
-103 -92 515 -104 0
-103 92 -516 104 0
-103 92 516 -104 0
103 -92 -517 104 0
103 -92 517 -104 0
103 92 -518 104 0
103 92 518 -104 0
-104 -93 -519 105 0
-104 -93 519 -105 0
-104 93 -520 105 0
-104 93 520 -105 0
104 -93 -521 105 0
104 -93 521 -105 0
104 93 -522 105 0
104 93 522 -105 0
-105 -94 -106 0
-105 94 -106 0
105 -94 106 0
105 94 106 0
-106 -95 -527 107 0
-106 -95 527 -107 0
-106 95 -528 107 0
-106 95 528 -107 0
106 -95 -529 107 0
106 -95 529 -107 0
106 95 -530 107 0
106 95 530 -107 0
-107 -96 108 0
-107 96 -108 0
107 -96 -108 0
107 96 108 0
-97 -109 0
97 109 0
-109 -98 -537 110 0
-109 -98 537 -110 0
-109 98 -538 110 0
-109 98 538 -110 0
109 -98 -539 110 0
109 -98 539 -110 0
109 98 -540 110 0
109 98 540 -110 0
-110 -99 111 0
-110 99 111 0
110 -99 111 0
110 99 -111 0
-111 -100 -112 0
-111 100 112 0
111 -100 -112 0
111 100 -112 0
-112 -101 -113 0
-112 101 -113 0
112 -101 -113 0
112 101 113 0
-113 -102 -114 0
-113 102 114 0
113 -102 -114 0
113 102 -114 0
-114 -103 -557 115 0
-114 -103 557 -115 0
-114 103 -558 115 0
-114 103 558 -115 0
114 -103 -559 115 0
114 -103 559 -115 0
114 103 -560 115 0
114 103 560 -115 0
-115 -104 -561 116 0
-115 -104 561 -116 0
-115 104 -562 116 0
-115 104 562 -116 0
115 -104 -563 116 0
115 -104 563 -116 0
115 104 -564 116 0
115 104 564 -116 0
-116 -105 -565 117 0
-116 -105 565 -117 0
-116 105 -566 117 0
-116 105 566 -117 0
116 -105 -567 117 0
116 -105 567 -117 0
116 105 -568 117 0
116 105 568 -117 0
-117 -106 118 0
-117 106 118 0
117 -106 -118 0
117 106 118 0
-118 -107 -119 0
-118 107 -119 0
118 -107 119 0
118 107 -119 0
-119 -108 120 0
-119 108 -120 0
119 -108 -120 0
119 108 120 0
-109 121 0
109 -121 0
-121 -110 -122 0
-121 110 122 0
121 -110 122 0
121 110 122 0
-122 -111 123 0
-122 111 123 0
122 -111 123 0
122 111 -123 0
-123 -112 124 0
-123 112 -124 0
123 -112 -124 0
123 112 -124 0
-124 -113 125 0
-124 113 125 0
124 -113 125 0
124 113 -125 0
-125 -114 -126 0
-125 114 126 0
125 -114 -126 0
125 114 126 0
-126 -115 127 0
-126 115 -127 0
126 -115 127 0
126 115 -127 0
-127 -116 128 0
-127 116 128 0
127 -116 128 0
127 116 -128 0
-128 -117 -129 0
-128 117 129 0
128 -117 129 0
128 117 -129 0
-129 -118 -130 0
-129 118 -130 0
129 -118 -130 0
129 118 130 0
-130 -119 131 0
-130 119 -131 0
130 -119 -131 0
130 119 -131 0
-131 -120 132 0
-131 120 132 0
131 -120 -132 0
131 120 -132 0
-121 -133 0
121 133 0
-133 -122 -134 0
-133 122 134 0
133 -122 134 0
133 122 134 0
-134 -123 -633 135 0
-134 -123 633 -135 0
-134 123 -634 135 0
-134 123 634 -135 0
134 -123 -635 135 0
134 -123 635 -135 0
134 123 -636 135 0
134 123 636 -135 0
-135 -124 136 0
-135 124 -136 0
135 -124 -136 0
135 124 -136 0
-136 -125 -137 0
-136 125 137 0
136 -125 137 0
136 125 137 0
-137 -126 -138 0
-137 126 -138 0
137 -126 -138 0
137 126 138 0
-138 -127 -649 139 0
-138 -127 649 -139 0
-138 127 -650 139 0
-138 127 650 -139 0
138 -127 -651 139 0
138 -127 651 -139 0
138 127 -652 139 0
138 127 652 -139 0
-139 -128 -140 0
-139 128 -140 0
139 -128 140 0
139 128 140 0
-140 -129 141 0
-140 129 141 0
140 -129 -141 0
140 129 141 0
-141 -130 -142 0
-141 130 142 0
141 -130 142 0
141 130 -142 0
-142 -131 143 0
-142 131 -143 0
142 -131 -143 0
142 131 143 0
-143 -132 144 0
-143 132 144 0
143 -132 -144 0
143 132 144 0
144 0
