data/benchmarks/bayes/90-12-3-q.gr
p tw 672 601
55 66
37 305
67 68
99 100
88 100
19 238
70 82
8 9
40 41
29 41
98 540
92 515
100 101
11 23
121 133
41 42
73 74
62 74
23 253
133 134
44 56
14 15
3 15
74 75
106 107
95 107
116 566
105 566
122 133
15 16
47 48
36 48
107 108
96 108
18 30
117 567
128 140
21 32
80 81
69 81
140 141
113 124
129 141
10 22
81 82
54 65
102 114
103 515
34 254
22 23
43 55
106 529
95 529
114 115
87 98
103 115
116 561
55 56
28 39
109 540
76 88
88 99
30 237
19 237
29 40
98 539
77 89
31 238
2 13
58 341
62 73
110 122
115 564
104 564
3 14
51 63
35 46
95 106
116 565
105 565
36 47
128 139
21 22
13 167
69 80
113 114
139 651
10 21
54 55
102 113
115 559
34 253
71 391
43 54
87 88
28 29
17 29
109 539
76 87
88 89
109 121
74 401
30 236
29 30
19 236
57 339
46 339
61 62
50 62
98 538
121 122
2 3
58 340
62 63
94 95
83 95
105 519
110 121
115 563
104 563
3 4
35 36
24 36
95 96
84 96
127 128
116 128
19 195
8 195
9 20
68 69
57 69
128 129
117 129
91 467
127 649
20 196
69 70
42 53
58 70
101 102
90 102
10 11
139 650
31 43
70 389
59 389
102 103
75 86
91 103
123 135
115 558
93 521
43 44
16 27
32 44
71 390
64 76
135 136
108 119
124 136
5 17
17 28
56 337
45 337
76 77
65 77
97 109
6 18
74 400
57 338
50 61
98 110
82 93
1 168
104 517
39 51
23 34
83 94
131 143
115 126
24 35
72 84
56 67
116 127
9 10
19 194
8 194
57 68
135 634
89 100
91 466
30 41
42 43
90 101
134 135
104 521
31 42
75 76
123 134
93 520
105 522
16 17
64 75
5 16
73 398
49 50
38 50
56 336
45 336
109 110
130 142
49 306
74 399
50 51
127 652
82 83
71 83
138 649
142 143
1 167
104 516
23 24
12 24
70 392
83 84
115 116
104 116
134 633
35 254
56 57
45 57
116 117
105 117
57 58
46 58
73 402
62 402
89 90
78 90
135 633
91 465
30 31
19 31
90 91
63 74
79 91
111 123
104 520
31 32
4 15
20 32
52 64
141 142
123 124
112 124
64 65
53 65
85 97
114 560
103 560
123 636
107 530
5 6
26 38
90 468
73 397
79 468
38 49
97 98
70 81
86 98
118 130
130 141
49 305
27 39
11 22
71 82
119 131
110 540
104 515
23 252
12 23
60 72
44 55
104 115
1 13
122 123
35 253
45 56
93 105
96 107
18 29
117 566
78 89
126 138
92 518
19 30
129 140
63 64
111 122
138 652
4 5
25 37
52 63
134 636
106 528
95 528
103 114
37 38
107 529
26 37
70 71
59 71
118 129
130 131
77 88
11 12
31 237
92 104
110 539
23 251
44 45
33 45
103 518
125 137
51 62
116 564
66 78
137 138
18 19
7 19
117 565
99 111
129 130
40 52
111 112
100 112
132 144
73 85
34 252
103 104
14 26
106 527
95 527
85 86
116 568
105 568
106 118
109 538
136 137
47 59
59 70
118 119
30 235
19 235
107 119
77 78
98 537
80 92
31 236
92 103
58 339
110 538
110 111
33 44
115 562
81 93
104 562
51 52
103 517
125 136
84 95
143 144
116 563
66 77
114 126
117 128
55 67
20 195
99 110
58 69
57 342
46 342
40 51
139 649
132 143
91 102
25 26
115 557
34 251
32 43
71 389
14 25
114 125
124 135
17 18
116 567
105 567
106 117
65 76
109 537
47 58
6 17
57 337
98 109
21 33
80 91
113 125
39 50
59 392
131 142
54 66
115 561
13 25
104 561
72 83
87 99
116 562
19 193
8 193
117 118
28 40
120 132
20 194
58 59
30 238
57 341
46 341
61 73
91 92
2 14
58 342
93 519
105 521
32 33
94 106
124 125
35 47
127 139
65 66
56 335
45 335
68 80
6 7
139 140
127 651
98 99
57 336
13 168
101 113
39 40
139 652
70 391
59 391
131 132
115 560
71 392
105 116
46 57
73 401
62 401
120 131
20 193
74 402
79 90
57 340
46 340
104 519
20 31
112 123
105 520
94 105
53 64
114 559
103 559
123 635
38 39
90 467
79 467
127 138
19 196
8 196
86 97
9 21
135 636
68 79
27 38
91 468
71 72
127 650
57 335
119 130
42 54
101 112
60 71
104 105
70 390
59 390
75 87
13 14
35 252
45 46
34 46
93 522
93 104
105 106
16 28
108 120
46 47
78 79
67 79
73 400
62 400
126 137
56 338
45 338
49 61
138 139
19 20
8 20
92 517
79 80
138 651
82 94
20 21
52 53
41 53
104 518
112 113
23 35
134 635
115 127
53 54
74 86
114 558
103 558
56 68
123 634
26 27
15 27
107 528
90 466
86 87
79 466
135 635
89 101
27 28
48 60
119 120
30 42
104 522
1 2
22 34
35 251
34 45
93 94
61 398
7 18
37 306
67 78
73 399
62 399
126 127
8 19
92 516
100 111
138 650
41 52
23 254
134 634
74 85
122 134
114 557
103 557
123 633
15 26
107 527
59 60
90 465
79 465
117 568
107 118
48 59
92 93
31 235
63 75
110 537
33 34
81 92
4 16
103 516
125 126
22 33
34 35
66 67
106 530
95 530
61 397
37 49
7 8
